2444, 0, 0, 95, 2
2445, 0, 1, 50, 1
2446, 0, 2, 89, 3
2447, 0, 3, 85, 0
2448, 1, 0, 98, 0
2449, 1, 1, 37, 3
2450, 1, 2, 58, 2
2451, 1, 3, 92, 1
2452, 2, 0, 91, 3
2453, 2, 1, 68, 1
2454, 2, 2, 54, 0
2455, 2, 3, 67, 2
2456, 3, 0, 77, 3
2457, 3, 1, 62, 2
2458, 3, 2, 89, 1
2459, 3, 3, 42, 0
